p cnf 20 8
e 1 0
a 2 3 4 0
e 5 0
a 6 0
e 7 8 0
a 9 10 0
e 11 12 13 0
a 14 15 16 0
e 17 0
a 18 0
e 19 20 0
-2 12 -13 18 -4 0
3 2 -6 -20 0
11 3 19 8 -18 0
10 -17 12 0
3 11 -7 -9 -2 0
-15 -1 2 -13 18 0
-5 -1 -12 14 0
6 -2 -14 12 0
